c FILE /home/rafael/Documents/HappySet/MIHS/inputs/happygen/output/graph_scale_free_k4_p0.4_v50_20241127_082431.txt
c SOURCE This is a scale-free graph formed for the happy graph colouring problem.
c DESCRIPTION It was generated using the problem generator of Rhyd Lewis
c
c GRAPH STATS
c Seed                             = -1367787767
c Number of Nodes                  = 50
c Number of colours k              = 4
c Number of pre-assignments        = 20
c Number of links per new node     = 5
c Density                          = 0.191837
c 
c The degrees of nodes 1 to 50, respectively, are as follows 
c [28, 23, 20, 20, 18, 18, 17, 17, 16, 13, 12, 12, 11, 11, 11, 10, 9, 9, 9, 9, 8, 8, 8, 8, 8, 7, 
c  7, 7, 7, 6, 6, 6, 6, 5, 5, 5, 5, 5, 5, 5, 5, 5, 5, 5, 5, 5, 5, 5, 5, 5] 
c  
p edge 50 235 4
e 1 2
e 1 3
e 1 4
e 1 5
e 1 6
e 1 7
e 1 8
e 1 9
e 1 12
e 1 13
e 1 15
e 1 18
e 1 21
e 1 22
e 1 23
e 1 25
e 1 27
e 1 28
e 1 32
e 1 34
e 1 35
e 1 36
e 1 38
e 1 40
e 1 44
e 1 46
e 1 47
e 1 50
e 2 3
e 2 4
e 2 5
e 2 6
e 2 7
e 2 8
e 2 9
e 2 10
e 2 13
e 2 14
e 2 17
e 2 20
e 2 22
e 2 23
e 2 24
e 2 27
e 2 29
e 2 34
e 2 37
e 2 43
e 2 46
e 2 48
e 3 5
e 3 6
e 3 7
e 3 8
e 3 11
e 3 13
e 3 16
e 3 18
e 3 19
e 3 20
e 3 23
e 3 27
e 3 28
e 3 32
e 3 35
e 3 39
e 3 44
e 3 45
e 4 5
e 4 9
e 4 10
e 4 11
e 4 13
e 4 16
e 4 17
e 4 18
e 4 21
e 4 26
e 4 29
e 4 30
e 4 31
e 4 36
e 4 42
e 4 45
e 4 49
e 4 50
e 5 7
e 5 8
e 5 9
e 5 10
e 5 11
e 5 12
e 5 13
e 5 15
e 5 22
e 5 26
e 5 30
e 5 34
e 5 44
e 5 49
e 6 7
e 6 10
e 6 12
e 6 14
e 6 15
e 6 17
e 6 19
e 6 21
e 6 22
e 6 24
e 6 29
e 6 33
e 6 38
e 6 46
e 6 50
e 7 8
e 7 9
e 7 10
e 7 13
e 7 15
e 7 16
e 7 30
e 7 31
e 7 34
e 7 38
e 7 40
e 7 49
e 8 10
e 8 11
e 8 14
e 8 17
e 8 21
e 8 24
e 8 34
e 8 35
e 8 37
e 8 39
e 8 42
e 8 49
e 9 12
e 9 13
e 9 14
e 9 17
e 9 18
e 9 21
e 9 29
e 9 32
e 9 36
e 9 37
e 9 45
e 10 11
e 10 14
e 10 19
e 10 27
e 10 28
e 10 30
e 10 40
e 11 18
e 11 26
e 11 33
e 11 35
e 11 44
e 11 45
e 11 48
e 12 14
e 12 25
e 12 31
e 12 32
e 12 36
e 12 37
e 12 38
e 12 46
e 13 25
e 13 30
e 13 41
e 13 47
e 14 22
e 14 25
e 14 26
e 14 33
e 14 41
e 15 16
e 15 21
e 15 23
e 15 27
e 15 31
e 15 38
e 15 44
e 16 17
e 16 19
e 16 20
e 16 23
e 16 43
e 16 48
e 17 35
e 17 42
e 17 48
e 18 28
e 18 33
e 18 36
e 18 40
e 19 20
e 19 27
e 19 28
e 19 37
e 19 47
e 20 22
e 20 29
e 20 41
e 20 46
e 20 47
e 21 32
e 21 40
e 22 39
e 22 49
e 23 26
e 23 31
e 23 50
e 24 25
e 24 26
e 24 30
e 24 42
e 24 45
e 25 39
e 25 41
e 25 43
e 26 41
e 27 42
e 28 33
e 28 50
e 29 43
e 29 47
e 31 43
e 32 39
e 33 48
n 2 4
n 16 4
n 19 4
n 21 3
n 26 3
n 27 4
n 28 4
n 29 4
n 30 2
n 31 4
n 33 4
n 34 4
n 37 4
n 39 1
n 40 3
n 43 4
n 44 3
n 45 2
n 49 3
n 50 4
